
--- Job bidpwl.gms Start 02/17/22 11:12:08 24.2.3 r46072 WEX-WEI x86_64/MS Windows
GAMS 24.2.3   Copyright (C) 1987-2014 GAMS Development. All rights reserved
Licensee: Utah Water Research Laboratory (5 user)        G140130:1517AV-GEN
          Utah State University                                      DC7087
          License for teaching and research at degree granting institutions
--- Starting compilation
--- bidpwl.gms(61) 3 Mb
--- .pwlfunc.inc(133) 3 Mb
--- bidpwl.gms(92) 3 Mb
--- Starting execution: elapsed 0:00:00.005
--- bidpwl.gms(200) 5 Mb
--- Generating MIP model bideval
--- bidpwl.gms(200) 5 Mb
---   31 rows  39 columns  89 non-zeroes
---   14 discrete-columns
--- Executing CPLEX: elapsed 0:00:00.011

IBM ILOG CPLEX   24.2.3 r46072 Released May 22, 2014 WEI x86_64/MS Windows    
Cplex 12.6.0.0

Reading data...
Starting Cplex...
Space for names approximately 0.00 Mb
Use option 'names no' to turn use of names off
Tried aggregator 2 times.
MIP Presolve eliminated 11 rows and 12 columns.
Aggregator did 8 substitutions.
Reduced MIP has 12 rows, 19 columns, and 39 nonzeros.
Reduced MIP has 10 binaries, 0 generals, 0 SOSs, and 0 indicators.
Presolve time = 0.00 sec. (0.05 ticks)
Found incumbent of value 1.5887661e+007 after 0.00 sec. (0.09 ticks)
Probing time = 0.00 sec. (0.01 ticks)
Tried aggregator 1 time.
MIP Presolve eliminated 1 rows and 1 columns.
Reduced MIP has 11 rows, 18 columns, and 37 nonzeros.
Reduced MIP has 9 binaries, 0 generals, 0 SOSs, and 0 indicators.
Presolve time = 0.00 sec. (0.03 ticks)
Probing time = 0.00 sec. (0.01 ticks)
Clique table members: 2.
MIP emphasis: balance optimality and feasibility.
MIP search method: dynamic search.
Parallel mode: none, using 1 thread.
Tried aggregator 1 time.
LP Presolve eliminated 3 rows and 4 columns.
Reduced LP has 8 rows, 14 columns, and 30 nonzeros.
Presolve time = 0.00 sec. (0.01 ticks)

Iteration log . . .
Iteration:     1   Dual objective     =      14942215.607520
Initializing dual steep norms . . .
Root relaxation solution time = 0.02 sec. (0.02 ticks)

        Nodes                                         Cuts/
   Node  Left     Objective  IInf  Best Integer    Best Bound    ItCnt     Gap

*     0+    0                      1.58877e+007        0.0000        4  100.00%
Found incumbent of value 1.5887661e+007 after 0.08 sec. (0.17 ticks)
      0     0  1.50759e+007     2  1.58877e+007  1.50759e+007        4    5.11%
*     0+    0                      1.52101e+007  1.50759e+007        4    0.88%
Found incumbent of value 1.5210110e+007 after 0.08 sec. (0.19 ticks)
      0     0        cutoff        1.52101e+007                      4    0.00%
Elapsed time = 0.08 sec. (0.20 ticks, tree = 0.00 MB, solutions = 2)

Root node processing (before b&c):
  Real time             =    0.08 sec. (0.20 ticks)
Sequential b&c:
  Real time             =    0.00 sec. (0.00 ticks)
                          ------------
Total (root+branch&cut) =    0.08 sec. (0.20 ticks)
MIP status(101): integer optimal solution
Cplex Time: 0.08sec (det. 0.20 ticks)
Fixing integer variables, and solving final LP...
Tried aggregator 1 time.
LP Presolve eliminated 28 rows and 36 columns.
Aggregator did 3 substitutions.
All rows and columns eliminated.
Presolve time = 0.00 sec. (0.02 ticks)
Fixed MIP status(1): optimal
Cplex Time: 0.00sec (det. 0.03 ticks)

Proven optimal solution.

MIP Solution:     15210109.512000    (4 iterations, 0 nodes)
Final Solve:      15210109.512000    (0 iterations)

Best possible:    15210109.512000
Absolute gap:            0.000000
Relative gap:            0.000000

--- Restarting execution
--- bidpwl.gms(200) 2 Mb
--- Reading solution for model bideval
--- Executing after solve: elapsed 0:00:00.188
--- bidpwl.gms(209) 3 Mb
*** Status: Normal completion
--- Job bidpwl.gms Stop 02/17/22 11:12:08 elapsed 0:00:00.189
